MARKOV
228
 2 2 2 2 2 2 2 2 2 2 2 2 2 2 2 2 2 2 2 2 2 2 2 2 2 2 2 2 2 2 2 2 2 2 2 2 2 2 2 2 2 2 2 2 2 2 2 2 2 2 2 2 2 2 2 2 2 2 2 2 2 2 2 2 2 2 2 2 2 2 2 2 2 2 2 2 2 2 2 2 2 2 2 2 2 2 2 2 2 2 2 2 2 2 2 2 2 2 2 2 2 2 2 2 2 2 2 2 2 2 2 2 2 2 2 2 2 2 2 2 2 2 2 2 2 2 2 2 2 2 2 2 2 2 2 2 2 2 2 2 2 2 2 2 2 2 2 2 2 2 2 2 2 2 2 2 2 2 2 2 2 2 2 2 2 2 2 2 2 2 2 2 2 2 2 2 2 2 2 2 2 2 2 2 2 2 2 2 2 2 2 2 2 2 2 2 2 2 2 2 2 2 2 2 2 2 2 2 2 2 2 2 2 2 2 2 2 2 2 2 2 2 2 2 2 2 2 2
848
1	0 
1	1 
1	2 
1	3 
1	4 
1	5 
1	6 
1	7 
1	8 
1	9 
1	10 
1	11 
1	12 
1	13 
1	14 
1	15 
1	16 
1	17 
1	18 
1	19 
1	20 
1	21 
1	22 
1	23 
1	24 
1	25 
1	26 
1	27 
1	28 
1	29 
1	30 
1	31 
1	32 
1	33 
1	34 
1	35 
1	36 
1	37 
1	38 
1	39 
1	40 
1	41 
1	42 
1	43 
1	44 
1	45 
1	46 
1	47 
1	48 
1	49 
1	50 
1	51 
1	52 
1	53 
1	54 
1	55 
1	56 
1	57 
1	58 
1	59 
1	60 
1	61 
1	62 
1	63 
1	64 
1	65 
1	66 
1	67 
1	68 
1	69 
1	70 
1	71 
1	72 
1	73 
1	74 
1	75 
1	76 
1	77 
1	78 
1	79 
1	80 
1	81 
1	82 
1	83 
1	84 
1	85 
1	86 
1	87 
1	88 
1	89 
1	90 
1	91 
1	92 
1	93 
1	94 
1	95 
1	96 
1	97 
1	98 
1	99 
1	100 
1	101 
1	102 
1	103 
1	104 
1	105 
1	106 
1	107 
1	108 
1	109 
1	110 
1	111 
1	112 
1	113 
1	114 
1	115 
1	116 
1	117 
1	118 
1	119 
1	120 
1	121 
1	122 
1	123 
1	124 
1	125 
1	126 
1	127 
1	128 
1	129 
1	130 
1	131 
1	132 
1	133 
1	134 
1	135 
1	136 
1	137 
1	138 
1	139 
1	140 
1	141 
1	142 
1	143 
1	144 
1	145 
1	146 
1	147 
1	148 
1	149 
1	150 
1	151 
1	152 
1	153 
1	154 
1	155 
1	156 
1	157 
1	158 
1	159 
1	160 
1	161 
1	162 
1	163 
1	164 
1	165 
1	166 
1	167 
1	168 
1	169 
1	170 
1	171 
1	172 
1	173 
1	174 
1	175 
1	176 
1	177 
1	178 
1	179 
1	180 
1	181 
1	182 
1	183 
1	184 
1	185 
1	186 
1	187 
1	188 
1	189 
1	190 
1	191 
1	192 
1	193 
1	194 
1	195 
1	196 
1	197 
1	198 
1	199 
1	200 
1	201 
1	202 
1	203 
1	204 
1	205 
1	206 
1	207 
1	208 
1	209 
1	210 
1	211 
1	212 
1	213 
1	214 
1	215 
1	216 
1	217 
1	218 
1	219 
1	220 
1	221 
1	222 
1	223 
1	224 
1	225 
1	226 
1	227 
2	1 3 
2	1 91 
2	2 3 
2	2 55 
2	2 57 
2	3 57 
2	3 91 
2	3 94 
2	4 5 
2	4 6 
2	4 148 
2	4 203 
2	4 221 
2	4 222 
2	5 6 
2	5 40 
2	5 41 
2	5 42 
2	5 148 
2	5 150 
2	6 35 
2	6 40 
2	6 64 
2	6 203 
2	7 8 
2	7 9 
2	7 10 
2	7 167 
2	7 168 
2	8 9 
2	8 10 
2	8 16 
2	8 17 
2	9 17 
2	9 134 
2	9 135 
2	9 167 
2	9 171 
2	10 16 
2	10 18 
2	11 12 
2	11 13 
2	11 15 
2	11 167 
2	11 169 
2	12 13 
2	12 14 
2	12 15 
2	13 167 
2	13 168 
2	14 15 
2	15 169 
2	15 170 
2	16 17 
2	16 18 
2	16 194 
2	17 134 
2	17 138 
2	17 194 
2	18 192 
2	18 194 
2	19 20 
2	19 21 
2	19 22 
2	19 23 
2	19 215 
2	20 21 
2	20 22 
2	20 24 
2	20 122 
2	20 175 
2	21 23 
2	21 24 
2	21 43 
2	21 47 
2	22 122 
2	22 124 
2	22 211 
2	22 212 
2	22 215 
2	23 34 
2	23 47 
2	23 97 
2	23 98 
2	23 215 
2	24 43 
2	24 44 
2	24 46 
2	24 175 
2	25 26 
2	25 112 
2	25 136 
2	25 138 
2	25 205 
2	25 225 
2	26 28 
2	26 111 
2	26 112 
2	26 113 
2	26 134 
2	26 138 
2	27 28 
2	27 30 
2	27 80 
2	27 135 
2	27 149 
2	28 113 
2	28 134 
2	28 135 
2	28 149 
2	29 30 
2	29 76 
2	29 78 
2	29 137 
2	29 170 
2	30 78 
2	30 80 
2	30 135 
2	30 137 
2	31 32 
2	31 34 
2	31 54 
2	31 97 
2	31 99 
2	31 118 
2	32 33 
2	32 34 
2	32 54 
2	32 58 
2	33 34 
2	33 58 
2	33 59 
2	33 213 
2	33 215 
2	33 216 
2	34 97 
2	34 215 
2	35 36 
2	35 40 
2	35 41 
2	35 61 
2	35 64 
2	35 81 
2	35 82 
2	36 37 
2	36 61 
2	36 63 
2	36 81 
2	36 178 
2	37 38 
2	37 63 
2	37 178 
2	37 179 
2	37 208 
2	38 63 
2	38 65 
2	38 208 
2	38 209 
2	39 41 
2	39 42 
2	39 82 
2	39 152 
2	39 190 
2	40 41 
2	41 42 
2	41 82 
2	42 150 
2	42 189 
2	42 190 
2	43 45 
2	43 46 
2	43 47 
2	43 52 
2	43 53 
2	44 46 
2	44 173 
2	44 175 
2	44 176 
2	45 47 
2	45 49 
2	45 53 
2	45 96 
2	46 52 
2	46 108 
2	46 176 
2	47 96 
2	47 98 
2	48 51 
2	48 52 
2	48 53 
2	48 106 
2	48 109 
2	48 227 
2	49 50 
2	49 53 
2	49 103 
2	49 188 
2	50 51 
2	50 53 
2	50 132 
2	50 186 
2	50 188 
2	51 53 
2	51 186 
2	51 224 
2	51 227 
2	52 53 
2	52 108 
2	52 109 
2	54 55 
2	54 56 
2	54 57 
2	54 58 
2	54 60 
2	54 118 
2	55 56 
2	55 57 
2	56 60 
2	57 94 
2	57 117 
2	57 118 
2	58 59 
2	58 60 
2	59 60 
2	59 213 
2	61 62 
2	61 63 
2	61 64 
2	62 63 
2	62 64 
2	62 65 
2	62 203 
2	62 204 
2	62 206 
2	63 65 
2	64 203 
2	65 133 
2	65 187 
2	65 206 
2	65 209 
2	66 67 
2	66 158 
2	66 189 
2	66 191 
2	67 68 
2	67 69 
2	67 189 
2	68 69 
2	68 77 
2	69 79 
2	69 150 
2	69 151 
2	69 189 
2	70 72 
2	70 88 
2	70 90 
2	70 202 
2	71 72 
2	71 88 
2	71 174 
2	71 177 
2	71 200 
2	71 201 
2	72 88 
2	73 74 
2	73 75 
2	73 129 
2	73 164 
2	74 75 
2	74 157 
2	74 164 
2	74 166 
2	74 180 
2	74 181 
2	75 125 
2	75 127 
2	75 129 
2	75 180 
2	75 182 
2	76 77 
2	76 78 
2	76 79 
2	77 79 
2	78 79 
2	78 80 
2	79 80 
2	79 151 
2	80 148 
2	80 149 
2	80 151 
2	81 82 
2	81 153 
2	81 156 
2	81 178 
2	82 152 
2	82 154 
2	82 156 
2	83 84 
2	83 85 
2	83 86 
2	83 87 
2	83 90 
2	83 202 
2	84 85 
2	84 86 
2	84 120 
2	84 122 
2	84 124 
2	85 87 
2	85 120 
2	86 89 
2	86 90 
2	86 122 
2	86 172 
2	87 202 
2	88 89 
2	88 90 
2	88 173 
2	88 174 
2	89 90 
2	89 172 
2	89 173 
2	90 202 
2	91 93 
2	91 94 
2	92 93 
2	92 114 
2	92 119 
2	92 184 
2	93 94 
2	93 119 
2	94 117 
2	95 96 
2	95 98 
2	95 100 
2	95 101 
2	95 218 
2	95 220 
2	96 98 
2	96 101 
2	96 103 
2	97 98 
2	97 99 
2	97 100 
2	98 100 
2	99 100 
2	99 115 
2	99 118 
2	100 115 
2	100 220 
2	101 102 
2	101 103 
2	101 218 
2	102 103 
2	102 104 
2	102 207 
2	102 218 
2	103 132 
2	103 188 
2	103 207 
2	104 182 
2	104 207 
2	104 210 
2	104 217 
2	104 218 
2	104 219 
2	105 106 
2	105 107 
2	105 109 
2	105 110 
2	105 177 
2	105 197 
2	105 199 
2	105 201 
2	106 107 
2	106 109 
2	106 226 
2	106 227 
2	107 139 
2	107 199 
2	107 226 
2	108 109 
2	108 110 
2	108 176 
2	109 110 
2	110 176 
2	110 177 
2	111 112 
2	111 113 
2	111 204 
2	111 205 
2	111 223 
2	112 205 
2	113 149 
2	113 221 
2	113 222 
2	113 223 
2	114 115 
2	114 116 
2	114 119 
2	114 128 
2	114 184 
2	115 116 
2	115 118 
2	115 119 
2	115 220 
2	116 128 
2	116 217 
2	116 220 
2	117 118 
2	117 119 
2	118 119 
2	120 121 
2	120 124 
2	121 123 
2	121 124 
2	122 124 
2	122 172 
2	122 175 
2	123 124 
2	123 211 
2	123 214 
2	124 211 
2	125 127 
2	125 129 
2	125 130 
2	126 127 
2	126 128 
2	126 130 
2	126 185 
2	126 219 
2	127 130 
2	127 182 
2	127 219 
2	128 184 
2	128 185 
2	128 217 
2	128 219 
2	131 132 
2	131 133 
2	131 207 
2	131 209 
2	132 133 
2	132 186 
2	132 188 
2	132 207 
2	133 186 
2	133 187 
2	133 209 
2	134 135 
2	134 138 
2	135 137 
2	135 171 
2	136 138 
2	136 139 
2	136 193 
2	136 225 
2	136 226 
2	137 169 
2	137 170 
2	137 171 
2	138 193 
2	138 194 
2	139 193 
2	139 196 
2	139 199 
2	139 226 
2	140 142 
2	140 143 
2	140 145 
2	140 146 
2	140 152 
2	140 161 
2	141 142 
2	141 144 
2	141 159 
2	142 144 
2	142 145 
2	142 159 
2	142 160 
2	142 161 
2	142 162 
2	143 145 
2	143 146 
2	143 147 
2	143 155 
2	143 163 
2	144 145 
2	145 147 
2	146 152 
2	146 154 
2	146 155 
2	147 163 
2	147 165 
2	148 149 
2	148 150 
2	148 151 
2	148 222 
2	149 222 
2	150 151 
2	150 189 
2	152 154 
2	152 161 
2	152 190 
2	153 155 
2	153 156 
2	153 157 
2	153 178 
2	153 181 
2	154 155 
2	154 156 
2	155 156 
2	155 157 
2	155 163 
2	155 166 
2	157 166 
2	157 181 
2	158 160 
2	158 162 
2	158 191 
2	159 162 
2	160 161 
2	160 162 
2	160 190 
2	160 191 
2	161 190 
2	163 165 
2	163 166 
2	164 165 
2	164 166 
2	165 166 
2	167 168 
2	167 169 
2	167 171 
2	169 170 
2	169 171 
2	172 173 
2	172 175 
2	173 174 
2	173 175 
2	173 176 
2	174 176 
2	174 177 
2	175 176 
2	176 177 
2	177 201 
2	178 179 
2	178 181 
2	179 181 
2	179 183 
2	179 208 
2	180 181 
2	180 182 
2	180 183 
2	181 183 
2	182 183 
2	182 210 
2	182 219 
2	183 208 
2	183 210 
2	184 185 
2	186 187 
2	186 224 
2	187 206 
2	187 224 
2	189 190 
2	189 191 
2	190 191 
2	192 193 
2	192 194 
2	192 195 
2	193 194 
2	193 195 
2	193 196 
2	195 196 
2	195 198 
2	196 198 
2	196 199 
2	197 198 
2	197 199 
2	197 200 
2	197 201 
2	198 199 
2	200 201 
2	203 204 
2	203 221 
2	203 223 
2	204 205 
2	204 206 
2	204 223 
2	205 206 
2	205 224 
2	205 225 
2	206 224 
2	207 209 
2	207 210 
2	208 209 
2	208 210 
2	209 210 
2	211 212 
2	211 214 
2	212 214 
2	212 215 
2	212 216 
2	213 214 
2	213 216 
2	214 216 
2	215 216 
2	217 218 
2	217 219 
2	217 220 
2	218 220 
2	221 222 
2	221 223 
2	224 225 
2	224 227 
2	225 226 
2	225 227 
2	226 227 
0	

2
 0.252912 1
2
 1 0.0672508
2
 1 0.0320655
2
 1 0.0567062
2
 0.0882744 1
2
 0.267031 1
2
 0.155132 1
2
 1 0.036468
2
 1 0.0780555
2
 1 0.0850666
2
 1 0.0282832
2
 1 0.0504502
2
 1 0.131876
2
 1 0.0395991
2
 1 0.0543815
2
 1 0.0524928
2
 1 0.0769073
2
 1 0.15324
2
 1 0.0422448
2
 1 0.15752
2
 1 0.659245
2
 1 0.70817
2
 1 0.72113
2
 1 0.375266
2
 1 0.583013
2
 0.0852652 1
2
 0.182806 1
2
 0.0926727 1
2
 0.0754441 1
2
 0.142368 1
2
 0.145552 1
2
 1 0.431567
2
 1 0.660611
2
 1 0.0364912
2
 1 0.204428
2
 0.740272 1
2
 1 0.659159
2
 1 0.406732
2
 1 0.24713
2
 1 0.610545
2
 1 0.500023
2
 1 0.805801
2
 1 0.767898
2
 0.0541027 1
2
 0.0460869 1
2
 0.0322865 1
2
 0.0520511 1
2
 0.0341512 1
2
 0.452699 1
2
 0.411169 1
2
 1 0.550004
2
 1 0.569348
2
 0.851321 1
2
 0.704405 1
2
 1 0.333155
2
 1 0.13087
2
 1 0.250704
2
 1 0.135222
2
 1 0.159456
2
 1 0.0358573
2
 1 0.0655597
2
 1 0.886359
2
 0.363604 1
2
 1 0.26219
2
 0.175374 1
2
 0.391036 1
2
 1 0.544683
2
 1 0.272977
2
 1 0.386507
2
 1 0.176398
2
 1 0.096031
2
 1 0.0768684
2
 1 0.0676392
2
 0.401736 1
2
 0.144234 1
2
 0.542258 1
2
 0.0802742 1
2
 0.173268 1
2
 0.0270333 1
2
 0.358963 1
2
 0.27375 1
2
 1 0.989044
2
 0.386633 1
2
 1 0.482181
2
 0.950545 1
2
 1 0.68902
2
 1 0.476819
2
 1 0.511135
2
 1 0.944987
2
 1 0.741522
2
 1 0.364895
2
 1 0.104243
2
 1 0.253344
2
 1 0.200683
2
 1 0.158904
2
 0.0185463 1
2
 0.0392321 1
2
 0.709032 1
2
 0.117444 1
2
 1 0.838507
2
 0.411023 1
2
 0.0275088 1
2
 1 0.632077
2
 0.0374655 1
2
 1 0.896432
2
 0.379873 1
2
 0.11765 1
2
 0.224673 1
2
 0.0916635 1
2
 0.265546 1
2
 0.206994 1
2
 1 0.717492
2
 0.558859 1
2
 0.762284 1
2
 1 0.103437
2
 1 0.646312
2
 1 0.59818
2
 1 0.203673
2
 1 0.567071
2
 1 0.549852
2
 0.275808 1
2
 1 0.234276
2
 1 0.634849
2
 1 0.320894
2
 1 0.880857
2
 1 0.217105
2
 1 0.28367
2
 0.389114 1
2
 1 0.173712
2
 1 0.216818
2
 1 0.398572
2
 1 0.296537
2
 0.237396 1
2
 0.334786 1
2
 0.143139 1
2
 0.10625 1
2
 0.113275 1
2
 0.136854 1
2
 0.123003 1
2
 0.147002 1
2
 1 0.137504
2
 1 0.237617
2
 1 0.220491
2
 1 0.0745075
2
 0.860968 1
2
 1 0.58109
2
 1 0.167447
2
 1 0.0904949
2
 1 0.403058
2
 0.102091 1
2
 1 0.807234
2
 1 0.908596
2
 0.744502 1
2
 1 0.63867
2
 1 0.820023
2
 1 0.446725
2
 1 0.367948
2
 1 0.985905
2
 1 0.115539
2
 0.957666 1
2
 1 0.170208
2
 1 0.912019
2
 1 0.773097
2
 1 0.518393
2
 1 0.114165
2
 1 0.0506116
2
 1 0.138527
2
 1 0.0873364
2
 1 0.0871218
2
 1 0.341335
2
 1 0.489382
2
 1 0.252959
2
 0.189759 1
2
 0.0696153 1
2
 0.214067 1
2
 1 0.631988
2
 0.120483 1
2
 0.244804 1
2
 0.427932 1
2
 0.506146 1
2
 1 0.728008
2
 0.93464 1
2
 1 0.795754
2
 0.956615 1
2
 1 0.42777
2
 1 0.0923656
2
 1 0.553486
2
 0.0709462 1
2
 0.107101 1
2
 1 0.183719
2
 1 0.204032
2
 1 0.113154
2
 1 0.0356474
2
 1 0.14564
2
 1 0.120405
2
 1 0.0354339
2
 1 0.122836
2
 1 0.0863785
2
 1 0.04503
2
 1 0.188283
2
 1 0.0263597
2
 1 0.811322
2
 1 0.0581492
2
 0.334814 1
2
 0.366508 1
2
 0.3108 1
2
 0.088297 1
2
 1 0.649352
2
 1 0.304923
2
 1 0.574967
2
 1 0.33834
2
 1 0.202253
2
 1 0.0595264
2
 1 0.0632083
2
 1 0.0351748
2
 1 0.0959228
2
 1 0.156028
2
 0.0564654 1
2
 0.0198118 1
2
 0.0559322 1
2
 0.0334448 1
2
 0.385037 1
2
 0.419043 1
2
 1 0.324602
2
 0.0169616 1
2
 0.0313929 1
2
 0.0515233 1
2
 0.0333989 1
4
 1 0.283093 0.283093 0.975478
4
 1 0.286617 0.286617 0.970858
4
 1 0.280207 0.280207 0.982229
4
 1 0.277052 0.277052 0.989574
4
 1 0.279523 0.279523 0.986963
4
 1 0.281335 0.281335 0.983685
4
 1 0.285534 0.285534 0.974329
4
 1 0.284244 0.284244 0.978112
4
 1 0.321168 0.321168 0.998709
4
 1 0.318908 0.318908 0.998256
4
 0.996651 0.318742 0.318742 1
4
 0.997138 0.313935 0.313935 1
4
 0.995079 0.313672 0.313672 1
4
 0.994461 0.315312 0.315312 1
4
 1 0.321908 0.321908 0.995758
4
 1 0.323622 0.323622 0.99281
4
 1 0.326484 0.326484 0.989999
4
 1 0.328041 0.328041 0.991164
4
 0.999151 0.322547 0.322547 1
4
 1 0.327361 0.327361 0.994677
4
 1 0.321104 0.321104 0.990446
4
 1 0.321344 0.321344 0.99236
4
 1 0.317063 0.317063 0.996617
4
 1 0.31556 0.31556 0.999907
4
 0.95254 0.286407 0.286407 1
4
 0.955982 0.289897 0.289897 1
4
 0.947675 0.283183 0.283183 1
4
 0.954145 0.290429 0.290429 1
4
 0.949402 0.287061 0.287061 1
4
 0.958169 0.289804 0.289804 1
4
 0.949843 0.283093 0.283093 1
4
 0.9522 0.283035 0.283035 1
4
 0.955789 0.285158 0.285158 1
4
 0.959243 0.288634 0.288634 1
4
 0.963267 0.292255 0.292255 1
4
 0.965155 0.296154 0.296154 1
4
 0.959784 0.293874 0.293874 1
4
 0.963432 0.296595 0.296595 1
4
 0.947336 0.27985 0.27985 1
4
 0.943355 0.276735 0.276735 1
4
 0.955564 0.297531 0.297531 1
4
 0.954231 0.294981 0.294981 1
4
 0.96165 0.303095 0.303095 1
4
 0.95883 0.297129 0.297129 1
4
 0.964168 0.302929 0.302929 1
4
 0.950097 0.292681 0.292681 1
4
 0.952647 0.297485 0.297485 1
4
 0.957484 0.300732 0.300732 1
4
 0.953344 0.292286 0.292286 1
4
 0.948605 0.288896 0.288896 1
4
 0.958714 0.303049 0.303049 1
4
 0.966105 0.306188 0.306188 1
4
 0.968396 0.309951 0.309951 1
4
 0.953267 0.281892 0.281892 1
4
 0.945696 0.276679 0.276679 1
4
 0.949674 0.27811 0.27811 1
4
 0.960874 0.28757 0.28757 1
4
 0.958918 0.284014 0.284014 1
4
 0.953254 0.280196 0.280196 1
4
 0.941157 0.271038 0.271038 1
4
 0.945683 0.275015 0.275015 1
4
 0.963401 0.258757 0.258757 1
4
 0.969512 0.263933 0.263933 1
4
 0.964457 0.258041 0.258041 1
4
 0.973621 0.26576 0.26576 1
4
 0.970616 0.26174 0.26174 1
4
 0.964134 0.260779 0.260779 1
4
 0.959107 0.254957 0.254957 1
4
 0.959503 0.258114 0.258114 1
4
 0.952967 0.251237 0.251237 1
4
 0.954965 0.254501 0.254501 1
4
 0.974363 0.267837 0.267837 1
4
 0.96559 0.263277 0.263277 1
4
 0.971129 0.268791 0.268791 1
4
 0.974838 0.270117 0.270117 1
4
 0.954011 0.250541 0.250541 1
4
 0.95363 0.248975 0.248975 1
4
 0.958872 0.25219 0.25219 1
4
 0.962702 0.254555 0.254555 1
4
 0.96629 0.257897 0.257897 1
4
 0.980731 0.269604 0.269604 1
4
 0.978969 0.271987 0.271987 1
4
 0.984195 0.273111 0.273111 1
4
 0.984043 0.274382 0.274382 1
4
 0.975472 0.265612 0.265612 1
4
 0.966464 0.266045 0.266045 1
4
 0.958382 0.259824 0.259824 1
4
 0.962139 0.263266 0.263266 1
4
 0.956407 0.256939 0.256939 1
4
 0.967942 0.287996 0.287996 1
4
 0.969939 0.287369 0.287369 1
4
 0.962469 0.281369 0.281369 1
4
 0.963658 0.284262 0.284262 1
4
 0.97211 0.288011 0.288011 1
4
 0.966758 0.282989 0.282989 1
4
 0.971521 0.295183 0.295183 1
4
 0.973628 0.293925 0.293925 1
4
 0.971543 0.290898 0.290898 1
4
 0.975396 0.297052 0.297052 1
4
 0.967221 0.291355 0.291355 1
4
 0.965252 0.287752 0.287752 1
4
 0.975193 0.302303 0.302303 1
4
 0.977549 0.308407 0.308407 1
4
 0.982212 0.311446 0.311446 1
4
 0.972779 0.302364 0.302364 1
4
 0.980157 0.307452 0.307452 1
4
 0.977386 0.300772 0.300772 1
4
 0.969195 0.295003 0.295003 1
4
 0.971094 0.298939 0.298939 1
4
 0.97846 0.303969 0.303969 1
4
 0.97921 0.314631 0.314631 1
4
 0.983852 0.321441 0.321441 1
4
 0.982614 0.318576 0.318576 1
4
 0.977102 0.313675 0.313675 1
4
 0.976714 0.315902 0.315902 1
4
 0.981615 0.31497 0.31497 1
4
 0.982881 0.314135 0.314135 1
4
 0.973441 0.304975 0.304975 1
4
 0.976109 0.310124 0.310124 1
4
 0.992591 0.274538 0.274538 1
4
 0.989252 0.273382 0.273382 1
4
 0.99796 0.277471 0.277471 1
4
 0.992747 0.276938 0.276938 1
4
 0.998397 0.280548 0.280548 1
4
 1 0.281029 0.281029 0.998542
4
 0.98505 0.268245 0.268245 1
4
 0.986292 0.270657 0.270657 1
4
 0.994973 0.274705 0.274705 1
4
 0.988541 0.269755 0.269755 1
4
 0.981737 0.267116 0.267116 1
4
 0.983976 0.266226 0.266226 1
4
 0.9813 0.26339 0.26339 1
4
 0.976909 0.260639 0.260639 1
4
 0.976473 0.26316 0.26316 1
4
 0.976271 0.261546 0.261546 1
4
 0.986447 0.273024 0.273024 1
4
 0.977704 0.265527 0.265527 1
4
 1 0.321065 0.321065 0.98464
4
 1 0.322814 0.322814 0.987513
4
 1 0.325669 0.325669 0.984718
4
 1 0.318832 0.318832 0.988796
4
 1 0.318514 0.318514 0.99175
4
 1 0.324495 0.324495 0.981009
4
 1 0.326648 0.326648 0.980317
4
 1 0.316527 0.316527 0.984563
4
 1 0.317342 0.317342 0.987824
4
 1 0.315566 0.315566 0.987782
4
 1 0.322978 0.322978 0.980045
4
 1 0.320277 0.320277 0.980578
4
 1 0.310459 0.310459 0.988992
4
 1 0.312566 0.312566 0.988676
4
 1 0.317232 0.317232 0.981465
4
 1 0.314813 0.314813 0.981699
4
 1 0.311647 0.311647 0.984462
4
 1 0.309516 0.309516 0.992225
4
 1 0.306667 0.306667 0.996115
4
 1 0.308606 0.308606 0.987996
4
 1 0.306334 0.306334 0.992221
4
 1 0.332009 0.332009 0.980119
4
 1 0.333593 0.333593 0.981273
4
 1 0.333008 0.333008 0.97574
4
 1 0.336477 0.336477 0.972571
4
 1 0.337431 0.337431 0.97536
4
 1 0.325912 0.325912 0.98662
4
 1 0.330363 0.330363 0.984985
4
 1 0.329783 0.329783 0.979431
4
 1 0.33125 0.33125 0.989639
4
 1 0.334912 0.334912 0.984737
4
 1 0.335757 0.335757 0.980202
4
 0.977382 0.275604 0.275604 1
4
 0.967658 0.26878 0.26878 1
4
 0.97572 0.272956 0.272956 1
4
 0.968932 0.271322 0.271322 1
4
 0.973749 0.274857 0.274857 1
4
 0.959566 0.262495 0.262495 1
4
 0.949877 0.254543 0.254543 1
4
 0.953849 0.256186 0.256186 1
4
 0.952972 0.258033 0.258033 1
4
 0.981114 0.276963 0.276963 1
4
 0.984238 0.281837 0.281837 1
4
 0.979132 0.278892 0.278892 1
4
 0.985912 0.280799 0.280799 1
4
 0.964596 0.268489 0.268489 1
4
 0.96001 0.265068 0.265068 1
4
 0.956708 0.261452 0.261452 1
4
 0.984236 0.278101 0.278101 1
4
 0.984523 0.276718 0.276718 1
4
 0.972583 0.279906 0.279906 1
4
 0.967246 0.273847 0.273847 1
4
 0.972054 0.277414 0.277414 1
4
 0.963363 0.273643 0.273643 1
4
 0.963993 0.272695 0.272695 1
4
 0.968346 0.278079 0.278079 1
4
 0.984479 0.28493 0.28493 1
4
 0.98058 0.281074 0.281074 1
4
 0.990593 0.287742 0.287742 1
4
 0.987039 0.285999 0.285999 1
4
 0.979904 0.284484 0.284484 1
4
 0.979372 0.281951 0.281951 1
4
 0.988457 0.289846 0.289846 1
4
 0.984316 0.288355 0.288355 1
4
 0.985824 0.286892 0.286892 1
4
 0.976023 0.280634 0.280634 1
4
 0.98095 0.287008 0.287008 1
4
 0.97703 0.285566 0.285566 1
4
 0.972299 0.281306 0.281306 1
4
 0.970667 0.274559 0.274559 1
4
 0.961274 0.267575 0.267575 1
4
 0.962617 0.269888 0.269888 1
4
 1 0.276623 0.276623 0.99665
4
 0.999482 0.275231 0.275231 1
4
 1 0.27909 0.27909 0.99402
4
 0.993888 0.272637 0.272637 1
4
 0.995393 0.272421 0.272421 1
4
 1 0.280527 0.280527 0.996151
4
 1 0.274463 0.274463 0.997521
4
 1 0.278167 0.278167 0.991041
4
 0.994524 0.270057 0.270057 1
4
 1 0.28355 0.28355 0.982826
4
 1 0.282752 0.282752 0.98661
4
 1 0.282092 0.282092 0.990545
4
 0.984778 0.264873 0.264873 1
4
 0.988958 0.267512 0.267512 1
4
 0.986269 0.264662 0.264662 1
4
 0.977705 0.259314 0.259314 1
4
 1 0.311689 0.311689 0.996931
4
 1 0.31337 0.31337 0.991951
4
 1 0.31482 0.31482 0.994957
4
 1 0.309944 0.309944 0.996889
4
 1 0.311378 0.311378 0.99991
4
 0.999204 0.306846 0.306846 1
4
 0.9968 0.30891 0.30891 1
4
 0.993674 0.305015 0.305015 1
4
 0.992424 0.302297 0.302297 1
4
 1 0.308748 0.308748 0.995797
4
 0.998778 0.312632 0.312632 1
4
 0.998598 0.303057 0.303057 1
4
 0.995071 0.301361 0.301361 1
4
 0.993511 0.30146 0.30146 1
4
 1 0.305574 0.305574 0.995793
4
 1 0.343788 0.343788 0.979014
4
 1 0.349191 0.349191 0.968418
4
 1 0.342092 0.342092 0.978485
4
 1 0.345039 0.345039 0.972972
4
 1 0.339161 0.339161 0.989449
4
 1 0.337564 0.337564 0.989487
4
 1 0.339587 0.339587 0.983864
4
 1 0.335478 0.335478 0.994567
4
 1 0.335045 0.335045 0.998999
4
 0.999454 0.330621 0.330621 1
4
 1 0.332227 0.332227 0.993875
4
 1 0.330615 0.330615 0.997982
4
 1 0.335899 0.335899 0.988952
4
 0.925351 0.236962 0.236962 1
4
 0.928556 0.238489 0.238489 1
4
 0.926434 0.235403 0.235403 1
4
 0.92158 0.230441 0.230441 1
4
 0.929259 0.242848 0.242848 1
4
 0.932477 0.244413 0.244413 1
4
 0.935282 0.24762 0.24762 1
4
 0.93646 0.249846 0.249846 1
4
 0.930779 0.246888 0.246888 1
4
 0.933904 0.248999 0.248999 1
4
 0.930503 0.241587 0.241587 1
4
 1 0.326199 0.326199 0.957456
4
 1 0.323266 0.323266 0.957476
4
 1 0.325688 0.325688 0.953582
4
 1 0.329805 0.329805 0.952714
4
 1 0.323051 0.323051 0.960097
4
 1 0.326893 0.326893 0.961663
4
 1 0.329585 0.329585 0.955322
4
 1 0.329367 0.329367 0.957937
4
 1 0.322118 0.322118 0.963608
4
 1 0.323811 0.323811 0.964874
4
 1 0.319148 0.319148 0.958773
4
 1 0.316046 0.316046 0.963383
4
 1 0.322545 0.322545 0.956213
4
 1 0.319221 0.319221 0.963627
4
 1 0.315156 0.315156 0.967093
4
 0.992007 0.328259 0.328259 1
4
 0.986269 0.321786 0.321786 1
4
 0.990511 0.325144 0.325144 1
4
 0.99502 0.328728 0.328728 1
4
 0.989265 0.322246 0.322246 1
4
 0.986298 0.318073 0.318073 1
4
 0.99054 0.321392 0.321392 1
4
 0.996072 0.326262 0.326262 1
4
 0.991038 0.318461 0.318461 1
4
 0.985503 0.313162 0.313162 1
4
 0.993085 0.322037 0.322037 1
4
 1 0.328594 0.328594 0.975742
4
 1 0.326305 0.326305 0.97331
4
 1 0.328446 0.328446 0.972436
4
 1 0.323697 0.323697 0.976961
4
 1 0.334221 0.334221 0.971888
4
 1 0.333153 0.333153 0.97034
4
 1 0.330625 0.330625 0.971751
4
 0.93193 0.234737 0.234737 1
4
 0.928134 0.231345 0.231345 1
4
 0.932407 0.236434 0.236434 1
4
 0.924902 0.229464 0.229464 1
4
 0.92842 0.234699 0.234699 1
4
 0.923556 0.229753 0.229753 1
4
 0.932689 0.233544 0.233544 1
4
 0.936983 0.238681 0.238681 1
4
 0.936543 0.235652 0.235652 1
4
 0.942186 0.241876 0.241876 1
4
 0.94181 0.240364 0.240364 1
4
 0.925656 0.228297 0.228297 1
4
 0.932729 0.232247 0.232247 1
4
 0.937604 0.241778 0.241778 1
4
 0.933454 0.238643 0.238643 1
4
 0.942669 0.243624 0.243624 1
4
 0.941455 0.244272 0.244272 1
4
 0.921089 0.226726 0.226726 1
4
 0.935733 0.243151 0.243151 1
4
 0.931591 0.239998 0.239998 1
4
 0.938834 0.246599 0.246599 1
4
 0.936534 0.246334 0.246334 1
4
 0.933595 0.240004 0.240004 1
4
 0.941597 0.245665 0.245665 1
4
 0.940853 0.246605 0.246605 1
4
 0.924593 0.231899 0.231899 1
4
 1 0.290737 0.290737 0.969943
4
 1 0.287782 0.287782 0.973479
4
 1 0.29463 0.29463 0.968763
4
 1 0.29607 0.29607 0.971269
4
 1 0.293355 0.293355 0.974081
4
 1 0.298809 0.298809 0.966302
4
 1 0.289423 0.289423 0.973708
4
 1 0.291129 0.291129 0.975497
4
 1 0.285675 0.285675 0.981021
4
 0.993958 0.284764 0.284764 1
4
 0.994248 0.283348 0.283348 1
4
 1 0.28726 0.28726 0.999595
4
 0.998794 0.289077 0.289077 1
4
 1 0.291485 0.291485 0.996174
4
 1 0.290619 0.290619 0.995164
4
 0.989337 0.28055 0.28055 1
4
 0.99386 0.286222 0.286222 1
4
 0.992278 0.286682 0.286682 1
4
 0.989779 0.277862 0.277862 1
4
 0.995566 0.280181 0.280181 1
4
 0.995908 0.281812 0.281812 1
4
 0.995754 0.283123 0.283123 1
4
 1 0.285037 0.285037 0.998427
4
 1 0.286479 0.286479 0.993687
4
 1 0.283514 0.283514 0.995714
4
 1 0.288048 0.288048 0.993345
4
 1 0.28995 0.28995 0.99366
4
 1 0.293901 0.293901 0.997476
4
 0.997105 0.291023 0.291023 1
4
 1 0.293006 0.293006 0.996273
4
 1 0.294843 0.294843 0.999067
4
 1 0.299621 0.299621 0.988389
4
 1 0.298057 0.298057 0.993735
4
 1 0.295992 0.295992 0.992462
4
 0.994595 0.292708 0.292708 1
4
 0.991946 0.289724 0.289724 1
4
 1 0.295996 0.295996 0.999141
4
 1 0.306282 0.306282 0.978622
4
 1 0.300792 0.300792 0.988462
4
 1 0.303542 0.303542 0.984222
4
 1 0.300935 0.300935 0.981989
4
 1 0.298708 0.298708 0.987196
4
 1 0.303878 0.303878 0.978288
4
 0.95201 0.265533 0.265533 1
4
 0.948252 0.263525 0.263525 1
4
 0.952632 0.264613 0.264613 1
4
 0.947441 0.26012 0.26012 1
4
 0.943824 0.257285 0.257285 1
4
 0.940556 0.257514 0.257514 1
4
 0.944167 0.261137 0.261137 1
4
 0.941247 0.256413 0.256413 1
4
 0.954345 0.268579 0.268579 1
4
 0.958753 0.269687 0.269687 1
4
 0.958379 0.272422 0.272422 1
4
 0.963082 0.275011 0.275011 1
4
 0.951118 0.268599 0.268599 1
4
 0.946483 0.264132 0.264132 1
4
 0.954595 0.270362 0.270362 1
4
 0.95804 0.266449 0.266449 1
4
 0.95282 0.261925 0.261925 1
4
 0.953413 0.260562 0.260562 1
4
 0.954151 0.264188 0.264188 1
4
 0.949542 0.258352 0.258352 1
4
 0.945329 0.256873 0.256873 1
4
 0.975636 0.293285 0.293285 1
4
 0.979505 0.299491 0.299491 1
4
 0.983478 0.299332 0.299332 1
4
 0.97782 0.293941 0.293941 1
4
 0.981746 0.299395 0.299395 1
4
 0.975726 0.290913 0.290913 1
4
 0.982362 0.305894 0.305894 1
4
 0.986321 0.306122 0.306122 1
4
 0.985708 0.307723 0.307723 1
4
 0.983529 0.30258 0.30258 1
4
 1 0.292368 0.292368 0.98189
4
 1 0.294887 0.294887 0.978543
4
 1 0.292551 0.292551 0.978021
4
 1 0.297948 0.297948 0.974182
4
 1 0.29799 0.29799 0.97021
4
 1 0.292 0.292 0.985259
4
 1 0.286509 0.286509 0.990647
4
 1 0.289687 0.289687 0.984733
4
 1 0.291417 0.291417 0.988942
4
 1 0.297573 0.297573 0.977524
4
 1 0.297001 0.297001 0.981368
4
 1 0.293928 0.293928 0.985571
4
 1 0.284207 0.284207 0.988725
4
 1 0.287359 0.287359 0.982823
4
 1 0.286688 0.286688 0.986743
4
 0.940664 0.236899 0.236899 1
4
 0.94185 0.239029 0.239029 1
4
 0.948774 0.241868 0.241868 1
4
 0.945954 0.241635 0.241635 1
4
 0.947525 0.245342 0.245342 1
4
 0.946683 0.247541 0.247541 1
4
 0.949891 0.250093 0.250093 1
4
 0.94997 0.244043 0.244043 1
4
 0.955191 0.247195 0.247195 1
4
 0.957508 0.24703 0.24703 1
4
 0.952353 0.246957 0.246957 1
4
 1 0.31506 0.31506 0.962035
4
 1 0.321539 0.321539 0.954874
4
 1 0.315562 0.315562 0.958506
4
 1 0.309916 0.309916 0.964996
4
 1 0.304234 0.304234 0.968238
4
 1 0.31041 0.31041 0.961457
4
 1 0.306126 0.306126 0.963293
4
 1 0.306618 0.306618 0.968382
4
 1 0.312494 0.312494 0.963115
4
 1 0.311119 0.311119 0.970383
4
 1 0.308677 0.308677 0.970052
4
 1 0.300704 0.300704 0.9692
4
 1 0.302531 0.302531 0.968197
4
 1 0.300083 0.300083 0.976993
4
 1 0.303018 0.303018 0.973311
4
 0.998116 0.297411 0.297411 1
4
 0.999735 0.30054 0.30054 1
4
 1 0.299691 0.299691 0.995617
4
 1 0.302691 0.302691 0.994661
4
 0.995286 0.297022 0.297022 1
4
 0.989511 0.292418 0.292418 1
4
 0.991027 0.290934 0.290934 1
4
 0.999932 0.297487 0.297487 1
4
 0.991116 0.295494 0.295494 1
4
 0.99338 0.298466 0.298466 1
4
 1 0.303154 0.303154 0.997489
4
 0.966796 0.295062 0.295062 1
4
 0.962941 0.287577 0.287577 1
4
 0.971345 0.304048 0.304048 1
4
 0.966962 0.299444 0.299444 1
4
 0.959794 0.281131 0.281131 1
4
 0.955127 0.274442 0.274442 1
4
 0.954165 0.275811 0.275811 1
4
 0.962882 0.279872 0.279872 1
4
 0.95862 0.276243 0.276243 1
4
 0.971317 0.307597 0.307597 1
4
 0.973621 0.311377 0.311377 1
4
 0.969611 0.3045 0.3045 1
4
 0.955344 0.278647 0.278647 1
4
 0.955304 0.280203 0.280203 1
4
 0.950699 0.272017 0.272017 1
4
 0.948557 0.268964 0.268964 1
4
 0.947021 0.266164 0.266164 1
4
 0.955138 0.272443 0.272443 1
4
 1 0.34987 0.34987 0.952928
4
 1 0.34531 0.34531 0.953483
4
 1 0.34966 0.34966 0.949333
4
 1 0.344146 0.344146 0.956838
4
 1 0.342439 0.342439 0.961588
4
 1 0.345519 0.345519 0.959236
4
 1 0.357264 0.357264 0.946148
4
 1 0.360221 0.360221 0.941051
4
 1 0.361604 0.361604 0.943045
4
 1 0.355436 0.355436 0.946237
4
 1 0.352307 0.352307 0.947772
4
 1 0.356801 0.356801 0.948242
4
 1 0.350302 0.350302 0.957038
4
 1 0.348134 0.348134 0.957659
4
 1 0.353937 0.353937 0.952772
4
 1 0.347715 0.347715 0.948323
4
 1 0.342232 0.342232 0.955821
4
 1 0.34514 0.34514 0.949099
4
 1 0.338676 0.338676 0.956609
4
 1 0.3411 0.3411 0.952957
4
 1 0.355223 0.355223 0.942667
4
 1 0.349488 0.349488 0.944968
4
 1 0.339386 0.339386 0.963946
4
 1 0.338302 0.338302 0.962411
4
 1 0.337535 0.337535 0.959975
4
 1 0.342839 0.342839 0.949585
4
 1 0.343743 0.343743 0.946544
4
 0.988964 0.314377 0.314377 1
4
 1 0.325979 0.325979 0.99931
4
 0.996573 0.323286 0.323286 1
4
 0.992333 0.316256 0.316256 1
4
 0.986791 0.310994 0.310994 1
4
 1 0.32896 0.32896 0.99725
4
 1 0.334218 0.334218 0.988227
4
 1 0.336624 0.336624 0.967189
4
 1 0.34074 0.34074 0.966362
4
 1 0.33866 0.33866 0.97151
4
 1 0.330082 0.330082 0.965471
4
 1 0.328322 0.328322 0.969328
4
 1 0.326993 0.326993 0.966719
4
 1 0.323575 0.323575 0.973839
4
 1 0.32391 0.32391 0.969947
4
 1 0.334788 0.334788 0.963205
4
 1 0.333003 0.333003 0.967052
4
 1 0.332247 0.332247 0.964605
4
 1 0.330903 0.330903 0.962008
4
 1 0.336418 0.336418 0.957099
4
 1 0.333407 0.333407 0.958281
4
 1 0.330287 0.330287 0.959519
4
 1 0.324716 0.324716 0.966467
4
 1 0.350084 0.350084 0.962975
4
 1 0.353718 0.353718 0.958682
4
 1 0.347895 0.347895 0.967731
4
 1 0.358237 0.358237 0.949648
4
 1 0.345945 0.345945 0.963373
4
 1 0.351712 0.351712 0.958457
4
 1 0.343833 0.343833 0.968505
4
 1 0.345922 0.345922 0.967503
4
 1 0.341706 0.341706 0.969134
4
 1 0.339719 0.339719 0.950391
4
 1 0.335792 0.335792 0.954623
4
 1 0.336902 0.336902 0.948967
4
 1 0.333007 0.333007 0.953192
4
 1 0.336678 0.336678 0.951565
4
 0.953177 0.290999 0.290999 1
4
 0.963272 0.300161 0.300161 1
4
 0.96158 0.297139 0.297139 1
4
 0.970932 0.309781 0.309781 1
4
 0.966934 0.302939 0.302939 1
4
 0.944718 0.249149 0.249149 1
4
 0.948668 0.250757 0.250757 1
4
 0.941658 0.249834 0.249834 1
4
 0.947919 0.251717 0.251717 1
4
 0.947047 0.253532 0.253532 1
4
 0.944727 0.25326 0.25326 1
4
 0.940535 0.25181 0.25181 1
4
 0.951008 0.255168 0.255168 1
4
 0.945917 0.255537 0.255537 1
4
 0.939149 0.253212 0.253212 1
4
 1 0.318542 0.318542 0.977725
4
 1 0.321322 0.321322 0.973585
4
 1 0.318871 0.318871 0.973817
4
 1 0.314974 0.314974 0.976455
4
 1 0.312934 0.312934 0.98071
4
 1 0.319972 0.319972 0.968422
4
 1 0.314246 0.314246 0.970629
4
 1 0.316061 0.316061 0.971045
4
 1 0.317723 0.317723 0.972321
4
 1 0.312036 0.312036 0.974537
4
 1 0.307468 0.307468 0.979694
4
 1 0.307808 0.307808 0.973787
4
 1 0.311807 0.311807 0.979204
4
 1 0.309245 0.309245 0.980114
4
 1 0.302574 0.302574 0.96425
4
 0.987616 0.29384 0.29384 1
4
 0.981428 0.289452 0.289452 1
4
 0.98832 0.296893 0.296893 1
4
 0.983669 0.292363 0.292363 1
4
 1 0.338765 0.338765 0.978804
4
 1 0.340823 0.340823 0.977791
4
 1 0.341683 0.341683 0.973289
4
 0.945156 0.270926 0.270926 1
4
 0.945116 0.272439 0.272439 1
4
 0.939251 0.265737 0.265737 1
4
 0.949701 0.274901 0.274901 1
4
 0.943808 0.268138 0.268138 1
4
 0.947601 0.270307 0.270307 1
4
 0.941681 0.265129 0.265129 1
4
 0.936625 0.260416 0.260416 1
4
 0.94039 0.262522 0.262522 1
4
 0.943935 0.264491 0.264491 1
4
 0.935276 0.256185 0.256185 1
4
 0.938801 0.258106 0.258106 1
4
 0.932766 0.251288 0.251288 1
4
 0.935898 0.253437 0.253437 1
4
 0.938867 0.259789 0.259789 1
4
 0.933451 0.250214 0.250214 1
4
 0.992371 0.306216 0.306216 1
4
 0.993436 0.309867 0.309867 1
4
 0.990623 0.306281 0.306281 1
4
 0.983568 0.29691 0.29691 1
4
 0.988014 0.299661 0.299661 1
4
 0.987517 0.302419 0.302419 1
4
 0.98233 0.294264 0.294264 1
4
 0.977708 0.289774 0.289774 1
4
 0.972527 0.286479 0.286479 1
4
 0.982127 0.292459 0.292459 1
4
 1 0.302218 0.302218 0.992854
4
 1 0.301958 0.301958 0.989545
4
 1 0.307507 0.307507 0.987676
4
 1 0.307242 0.307242 0.984385
4
 1 0.30498 0.30498 0.988595
4
 0.961413 0.252491 0.252491 1
4
 0.95991 0.249979 0.249979 1
4
 0.963744 0.252323 0.252323 1
4
 0.968851 0.258205 0.258205 1
4
 0.96865 0.256621 0.256621 1
4
 0.967768 0.253186 0.253186 1
4
 0.972694 0.257499 0.257499 1
4
 0.967136 0.254067 0.254067 1
4
 0.97226 0.25999 0.25999 1
4
 1 0.29729 0.29729 0.986036
4
 1 0.302435 0.302435 0.977138
4
 1 0.296407 0.296407 0.985036
4
 1 0.294214 0.294214 0.990259
4
 0.990768 0.311226 0.311226 1
4
 0.988578 0.306024 0.306024 1
4
 0.972326 0.284722 0.284722 1
4
 0.972773 0.283701 0.283701 1
4
 0.962892 0.277834 0.277834 1
4
 0.967618 0.280474 0.280474 1
4
 0.963335 0.276837 0.276837 1
1
 1

